207
100 50 
100 49 
100 49 
100 49 
100 49 
100 49 
100 48 
100 48 
100 48 
100 48 
99 51 
99 51 
99 51 
99 51 
99 51 
99 51 
99 51 
99 51 
99 48 
98 52 
97 53 
97 53 
97 53 
97 53 
97 53 
97 52 
97 52 
96 54 
96 54 
96 54 
96 54 
96 54 
96 54 
95 55 
95 55 
95 55 
95 55 
95 55 
95 55 
95 55 
95 55 
95 54 
94 56 
94 56 
94 56 
94 56 
94 56 
94 56 
94 56 
94 56 
94 56 
93 57 
93 57 
93 57 
93 57 
92 58 
92 58 
92 58 
92 58 
92 58 
92 57 
92 57 
92 56 
92 56 
92 54 
91 59 
91 59 
91 59 
91 59 
91 59 
91 59 
91 59 
91 59 
90 60 
90 60 
90 60 
90 60 
90 60 
90 54 
90 52 
90 52 
89 61 
89 61 
89 61 
89 61 
88 62 
88 62 
88 62 
88 62 
88 62 
87 63 
87 63 
87 63 
87 63 
87 63 
87 62 
87 61 
87 61 
87 61 
87 61 
86 64 
86 64 
86 64 
86 61 
86 61 
85 65 
85 65 
85 65 
85 65 
85 65 
84 66 
84 66 
84 66 
84 66 
83 67 
83 67 
83 67 
83 67 
83 67 
83 66 
83 66 
83 66 
83 66 
83 52 
83 52 
82 68 
82 68 
82 68 
82 68 
82 68 
82 68 
81 69 
81 69 
81 69 
81 69 
81 47 22 
81 47 22 
81 46 23 
80 70 
80 70 
80 70 
80 70 
80 70 
80 70 
80 70 
80 46 24 
80 46 24 
80 46 24 
79 71 
79 71 
79 71 
78 72 
78 72 
78 72 
78 72 
78 72 
78 72 
78 72 
78 71 
78 71 
77 73 
77 73 
77 73 
76 74 
76 74 
76 74 
75 75 
75 75 
74 74 
74 73 
73 73 
73 46 31 
45 45 45 
45 45 45 
44 44 44 
44 44 44 
44 44 44 
43 43 43 21 
43 43 43 21 
43 42 42 23 
42 42 42 24 
42 42 42 23 
42 41 41 26 
41 41 41 27 
41 41 41 27 
41 41 40 28 
40 40 40 30 
40 40 40 30 
40 39 39 32 
39 39 39 33 
38 38 38 36 
38 38 37 37 
37 37 37 37 
37 36 36 35 
35 35 35 35 
35 35 35 35 
34 34 34 34 
34 34 33 33 
33 33 32 32 20 
32 32 32 31 22 
31 30 29 29 29 
29 29 29 29 29 
29 28 27 27 26 
26 26 26 26 26 20 
25 25 25 25 25 25 
25 25 25 25 22 22 
22 21 21 20 20 20 20 
